qbf_easy_train/easy_5850_SAT.qdimacs
p cnf 20 44
a 16 1 5 0
e 2 3 4 6 7 8 9 10 11 12 13 14 15 17 18 19 20 0
-3 1 0
-3 -2 0
-1 2 3 0
-6 -4 0
-6 5 0
4 -5 6 0
-7 8 0
7 8 0
-9 5 -10 0
9 -5 -10 0
-9 -5 10 0
9 5 10 0
8 10 -11 0
-8 -10 -11 0
8 -10 11 0
-8 10 11 0
-13 -7 0
-13 12 0
7 -12 13 0
-14 -13 0
-14 9 0
13 -9 14 0
-11 -14 -15 0
11 14 -15 0
-11 14 15 0
11 -14 15 0
-16 -6 0
-16 -15 0
6 15 16 0
-18 -5 0
-18 -17 0
5 17 18 0
-19 -16 0
-19 18 0
16 -18 19 0
3 -19 -20 0
-3 19 -20 0
3 19 20 0
-3 -19 20 0
7 -15 -18 -11 20 -5 0
-12 5 -10 -20 0
-6 -1 -14 11 10 15 0
-16 17 6 -2 18 -9 13 0
20 0
