sat_easy_train/easy_5850_SAT.dimacs
p cnf 132 443
2 1 0
2 -1 0
4 5 -6 0
-4 -5 -6 0
4 -5 6 0
-4 5 6 0
7 -3 0
7 6 0
3 -6 -7 0
8 9 -10 0
-8 -9 -10 0
8 -9 10 0
-8 9 10 0
-7 10 -11 0
7 -10 -11 0
-7 -10 11 0
7 10 11 0
-12 -2 0
-12 -11 0
2 11 12 0
-14 -6 0
-14 13 0
6 -13 14 0
15 5 0
15 -14 0
-5 14 -15 0
16 -15 0
16 4 0
15 -4 -16 0
9 18 -19 0
-9 -18 -19 0
9 -18 19 0
-9 18 19 0
-19 9 -20 0
19 -9 -20 0
-19 -9 20 0
19 9 20 0
17 -20 -21 0
-17 20 -21 0
17 20 21 0
-17 -20 21 0
22 -8 0
22 21 0
8 -21 -22 0
-24 -22 0
-24 23 0
22 -23 24 0
26 25 0
26 25 0
-25 -26 0
24 -26 -27 0
-24 26 -27 0
24 26 27 0
-24 -26 27 0
-28 14 0
-28 -2 0
-14 2 28 0
2 18 -29 0
-2 -18 -29 0
2 -18 29 0
-2 18 29 0
30 28 0
30 29 0
-28 -29 -30 0
17 30 -31 0
-17 -30 -31 0
17 -30 31 0
-17 30 31 0
-6 8 -33 0
6 -8 -33 0
-6 -8 33 0
6 8 33 0
-34 32 0
-34 33 0
-32 -33 34 0
35 31 0
35 -34 0
-31 34 -35 0
27 35 -36 0
-27 -35 -36 0
27 -35 36 0
-27 35 36 0
-37 16 0
-37 -36 0
-16 36 37 0
-38 12 0
-38 -37 0
-12 37 38 0
4 -17 -39 0
-4 17 -39 0
4 17 39 0
-4 -17 39 0
-40 17 0
-40 39 0
-17 -39 40 0
-42 41 0
-42 6 0
-41 -6 42 0
-43 -42 0
-43 22 0
42 -22 43 0
-3 43 -44 0
3 -43 -44 0
-3 -43 44 0
3 43 44 0
45 40 0
45 44 0
-40 -44 -45 0
46 1 0
46 -32 0
-1 32 -46 0
-46 -43 -47 0
46 43 -47 0
-46 43 47 0
46 -43 47 0
48 47 0
48 -26 0
-47 26 -48 0
49 -45 0
49 48 0
45 -48 -49 0
-41 -26 -50 0
41 26 -50 0
-41 26 50 0
41 -26 50 0
-51 50 0
-51 -39 0
-50 39 51 0
50 -5 -52 0
-50 5 -52 0
50 5 52 0
-50 -5 52 0
53 -29 0
53 52 0
29 -52 -53 0
-51 -53 -54 0
51 53 -54 0
-51 53 54 0
51 -53 54 0
49 54 -55 0
-49 -54 -55 0
49 -54 55 0
-49 54 55 0
-56 -38 0
-56 55 0
38 -55 56 0
-57 4 0
-57 2 0
-4 -2 57 0
58 2 0
58 -57 0
-2 57 -58 0
-59 28 0
-59 -58 0
-28 58 59 0
59 -30 -60 0
-59 30 -60 0
59 30 60 0
-59 -30 60 0
61 32 0
61 -32 0
-62 41 0
-62 -61 0
-41 61 62 0
-62 11 -63 0
62 -11 -63 0
-62 -11 63 0
62 11 63 0
64 -60 0
64 -63 0
60 63 -64 0
24 46 -65 0
-24 -46 -65 0
24 -46 65 0
-24 46 65 0
66 -65 0
66 50 0
65 -50 -66 0
67 -66 0
67 -33 0
66 33 -67 0
64 -67 -68 0
-64 67 -68 0
64 67 68 0
-64 -67 68 0
-69 5 0
-69 -62 0
-5 62 69 0
-62 9 -70 0
62 -9 -70 0
-62 -9 70 0
62 9 70 0
71 46 0
71 -70 0
-46 70 -71 0
-72 25 0
-72 -71 0
-25 71 72 0
73 69 0
73 72 0
-69 -72 -73 0
-74 68 0
-74 73 0
-68 -73 74 0
-75 -5 0
-75 -62 0
5 62 75 0
-76 28 -77 0
76 -28 -77 0
-76 -28 77 0
76 28 77 0
75 -77 -78 0
-75 77 -78 0
75 77 78 0
-75 -77 78 0
-79 74 0
-79 -78 0
-74 78 79 0
56 -79 -80 0
-56 79 -80 0
56 79 80 0
-56 -79 80 0
-81 14 0
-81 7 0
-14 -7 81 0
-14 -20 -82 0
14 20 -82 0
-14 20 82 0
14 -20 82 0
83 -82 0
83 -65 0
82 65 -83 0
-84 -83 0
-84 -52 0
83 52 84 0
-85 -81 0
-85 -84 0
81 84 85 0
-86 2 0
-86 61 0
-2 -61 86 0
87 86 0
87 4 0
-86 -4 -87 0
89 15 0
89 -88 0
-15 88 -89 0
90 32 0
90 -89 0
-32 89 -90 0
-91 87 0
-91 90 0
-87 -90 91 0
1 9 -92 0
-1 -9 -92 0
1 -9 92 0
-1 9 92 0
93 -18 0
93 92 0
18 -92 -93 0
94 -10 0
94 -71 0
10 71 -94 0
-95 93 0
-95 94 0
-93 -94 95 0
-96 14 0
-96 14 0
-14 96 0
-97 2 0
-97 71 0
-2 -71 97 0
-98 41 0
-98 20 0
-41 -20 98 0
99 -97 0
99 -98 0
97 98 -99 0
-101 1 0
-101 100 0
-1 -100 101 0
-102 101 0
-102 -28 0
-101 28 102 0
103 99 0
103 -102 0
-99 102 -103 0
-104 -96 0
-104 103 0
96 -103 104 0
11 43 -105 0
-11 -43 -105 0
11 -43 105 0
-11 43 105 0
-41 32 -106 0
41 -32 -106 0
-41 -32 106 0
41 32 106 0
-106 3 -107 0
106 -3 -107 0
-106 -3 107 0
106 3 107 0
-108 100 0
-108 -107 0
-100 107 108 0
-109 -105 0
-109 108 0
105 -108 109 0
-110 104 0
-110 109 0
-104 -109 110 0
111 -95 0
111 -110 0
95 110 -111 0
91 -111 -112 0
-91 111 -112 0
91 111 112 0
-91 -111 112 0
-113 -85 0
-113 -112 0
85 112 113 0
-80 113 -114 0
80 -113 -114 0
-80 -113 114 0
80 113 114 0
88 -46 -115 0
-88 46 -115 0
88 46 115 0
-88 -46 115 0
-116 -25 0
-116 -92 0
25 92 116 0
117 -66 0
117 116 0
66 -116 -117 0
115 117 -118 0
-115 -117 -118 0
115 -117 118 0
-115 117 118 0
119 -33 0
119 107 0
33 -107 -119 0
120 19 0
120 62 0
-19 -62 -120 0
-121 -119 0
-121 120 0
119 -120 121 0
-122 118 0
-122 -121 0
-118 121 122 0
28 -105 -123 0
-28 105 -123 0
28 105 123 0
-28 -105 123 0
123 -32 -124 0
-123 32 -124 0
123 32 124 0
-123 -32 124 0
125 -1 0
125 61 0
1 -61 -125 0
126 -125 0
126 -42 0
125 42 -126 0
-127 14 0
-127 11 0
-14 -11 127 0
128 47 0
128 -127 0
-47 127 -128 0
129 -126 0
129 128 0
126 -128 -129 0
-130 -124 0
-130 -129 0
124 129 130 0
131 122 0
131 130 0
-122 -130 -131 0
-114 -131 -132 0
114 131 -132 0
-114 131 132 0
114 -131 132 0
74 -60 -91 -38 105 51 0
-74 118 61 62 0
-40 67 -62 2 18 -7 0
-63 20 -32 -4 0
-53 -32 -57 -1 7 62 0
-82 109 0
45 104 -9 0
1 -118 132 0
58 -66 99 -42 0
-85 -44 -33 109 80 35 0
-65 126 -73 0
98 -111 -64 -35 -40 -95 0
102 -67 99 122 62 70 0
-38 -84 -13 64 0
-30 108 130 -87 106 34 0
-22 63 106 -71 28 0
21 -34 102 -69 0
-3 113 0
46 107 33 106 0
-22 69 -7 1 85 0
-99 42 -118 -81 67 0
22 -42 0
-72 94 -1 -115 -108 0
-66 43 0
22 -85 0
-34 -29 43 -89 -50 0
29 71 -119 0
-126 -14 0
-66 -79 31 0
-89 86 0
-54 -66 -20 0
-77 -55 50 0
-112 -102 0
48 116 18 28 85 0
106 103 -11 0
-120 -96 -61 8 -36 3 0
53 54 -35 -59 0
30 50 42 114 0
132 45 0
-52 -88 -5 80 37 -115 0
-89 -99 -70 132 43 0
117 -44 -119 -37 0
-27 82 -87 -75 0
-4 -42 -53 -119 55 9 0
71 125 -114 -41 0
121 40 0
45 80 50 -105 -118 0
17 -74 81 111 -21 0
-80 7 -130 -56 -15 0
-43 85 -2 -81 -41 0
-81 22 -28 -123 0
40 -132 12 0
-129 31 -35 -123 -110 56 0
124 90 -7 0
-12 24 -22 0
29 -12 0
-102 -22 -68 -40 -38 0
33 -121 -68 -43 0
132 0
